10
1
5
6
6
1
1
4
3
10
8
5
5
3
5
9
2
4
2
4
4
4
6
8
7
3
3
7
9
4
5
7
7
4
4
7
1
1
9
2
1
7
9
9
9
8
4
9
2
6
7
1
8
5
4
3
8
6
3
10
1
8
9
3
8
6
7
9
7
2
7
2
4
10
1
2
10
8
8
8
1
6
8
1
6
2
8
7
4
9
4
5
9
10
10
10
1
7
10
2
